c formula: 49917 vars, 74922 hard, 518 soft
c cost: 1; core sz: 147; soft sz: 372
c cost: 2; core sz: 50; soft sz: 324
c cost: 3; core sz: 2; soft sz: 325
c cost: 4; core sz: 3; soft sz: 325
c cost: 5; core sz: 3; soft sz: 326
c cost: 6; core sz: 17; soft sz: 313
c cost: 7; core sz: 110; soft sz: 204
c cost: 8; core sz: 38; soft sz: 168
c cost: 9; core sz: 2; soft sz: 169
s OPTIMUM FOUND
o 9
c oracle time: 23.0035
